100 4 100
10 9 51 46 42 60 61 89 58 54 31 36 59 19 69 35 69 75 30 7 95 79 7 73 17 65 76 21 99 67 8 10 76 11 56 18 71 70 59 82 24 91 70 35 62 40 70 31 67 53 38 62 84 98 87 2 63 63 23 62 82 84 24 58 47 33 29 71 3 88 53 79 31 23 15 93 15 37 25 82 42 15 96 27 13 36 81 76 99 56 91 82 92 15 92 40 48 21 11 51 
